$instance size is  1000
letting capacity be  170674
letting items be new type enum { 
a1,a2,a3,a4,a5,a6,a7,a8,a9,a10,a11,a12,a13,a14,a15,a16,a17,a18,a19,a20,a21,a22,a23,a24,a25,a26,a27,a28,a29,a30,a31,a32,a33,a34,a35,a36,a37,a38,a39,a40,a41,a42,a43,a44,a45,a46,a47,a48,a49,a50,a51,a52,a53,a54,a55,a56,a57,a58,a59,a60,a61,a62,a63,a64,a65,a66,a67,a68,a69,a70,a71,a72,a73,a74,a75,a76,a77,a78,a79,a80,a81,a82,a83,a84,a85,a86,a87,a88,a89,a90,a91,a92,a93,a94,a95,a96,a97,a98,a99,a100,a101,a102,a103,a104,a105,a106,a107,a108,a109,a110,a111,a112,a113,a114,a115,a116,a117,a118,a119,a120,a121,a122,a123,a124,a125,a126,a127,a128,a129,a130,a131,a132,a133,a134,a135,a136,a137,a138,a139,a140,a141,a142,a143,a144,a145,a146,a147,a148,a149,a150,a151,a152,a153,a154,a155,a156,a157,a158,a159,a160,a161,a162,a163,a164,a165,a166,a167,a168,a169,a170,a171,a172,a173,a174,a175,a176,a177,a178,a179,a180,a181,a182,a183,a184,a185,a186,a187,a188,a189,a190,a191,a192,a193,a194,a195,a196,a197,a198,a199,a200,a201,a202,a203,a204,a205,a206,a207,a208,a209,a210,a211,a212,a213,a214,a215,a216,a217,a218,a219,a220,a221,a222,a223,a224,a225,a226,a227,a228,a229,a230,a231,a232,a233,a234,a235,a236,a237,a238,a239,a240,a241,a242,a243,a244,a245,a246,a247,a248,a249,a250,a251,a252,a253,a254,a255,a256,a257,a258,a259,a260,a261,a262,a263,a264,a265,a266,a267,a268,a269,a270,a271,a272,a273,a274,a275,a276,a277,a278,a279,a280,a281,a282,a283,a284,a285,a286,a287,a288,a289,a290,a291,a292,a293,a294,a295,a296,a297,a298,a299,a300,a301,a302,a303,a304,a305,a306,a307,a308,a309,a310,a311,a312,a313,a314,a315,a316,a317,a318,a319,a320,a321,a322,a323,a324,a325,a326,a327,a328,a329,a330,a331,a332,a333,a334,a335,a336,a337,a338,a339,a340,a341,a342,a343,a344,a345,a346,a347,a348,a349,a350,a351,a352,a353,a354,a355,a356,a357,a358,a359,a360,a361,a362,a363,a364,a365,a366,a367,a368,a369,a370,a371,a372,a373,a374,a375,a376,a377,a378,a379,a380,a381,a382,a383,a384,a385,a386,a387,a388,a389,a390,a391,a392,a393,a394,a395,a396,a397,a398,a399,a400,a401,a402,a403,a404,a405,a406,a407,a408,a409,a410,a411,a412,a413,a414,a415,a416,a417,a418,a419,a420,a421,a422,a423,a424,a425,a426,a427,a428,a429,a430,a431,a432,a433,a434,a435,a436,a437,a438,a439,a440,a441,a442,a443,a444,a445,a446,a447,a448,a449,a450,a451,a452,a453,a454,a455,a456,a457,a458,a459,a460,a461,a462,a463,a464,a465,a466,a467,a468,a469,a470,a471,a472,a473,a474,a475,a476,a477,a478,a479,a480,a481,a482,a483,a484,a485,a486,a487,a488,a489,a490,a491,a492,a493,a494,a495,a496,a497,a498,a499,a500,a501,a502,a503,a504,a505,a506,a507,a508,a509,a510,a511,a512,a513,a514,a515,a516,a517,a518,a519,a520,a521,a522,a523,a524,a525,a526,a527,a528,a529,a530,a531,a532,a533,a534,a535,a536,a537,a538,a539,a540,a541,a542,a543,a544,a545,a546,a547,a548,a549,a550,a551,a552,a553,a554,a555,a556,a557,a558,a559,a560,a561,a562,a563,a564,a565,a566,a567,a568,a569,a570,a571,a572,a573,a574,a575,a576,a577,a578,a579,a580,a581,a582,a583,a584,a585,a586,a587,a588,a589,a590,a591,a592,a593,a594,a595,a596,a597,a598,a599,a600,a601,a602,a603,a604,a605,a606,a607,a608,a609,a610,a611,a612,a613,a614,a615,a616,a617,a618,a619,a620,a621,a622,a623,a624,a625,a626,a627,a628,a629,a630,a631,a632,a633,a634,a635,a636,a637,a638,a639,a640,a641,a642,a643,a644,a645,a646,a647,a648,a649,a650,a651,a652,a653,a654,a655,a656,a657,a658,a659,a660,a661,a662,a663,a664,a665,a666,a667,a668,a669,a670,a671,a672,a673,a674,a675,a676,a677,a678,a679,a680,a681,a682,a683,a684,a685,a686,a687,a688,a689,a690,a691,a692,a693,a694,a695,a696,a697,a698,a699,a700,a701,a702,a703,a704,a705,a706,a707,a708,a709,a710,a711,a712,a713,a714,a715,a716,a717,a718,a719,a720,a721,a722,a723,a724,a725,a726,a727,a728,a729,a730,a731,a732,a733,a734,a735,a736,a737,a738,a739,a740,a741,a742,a743,a744,a745,a746,a747,a748,a749,a750,a751,a752,a753,a754,a755,a756,a757,a758,a759,a760,a761,a762,a763,a764,a765,a766,a767,a768,a769,a770,a771,a772,a773,a774,a775,a776,a777,a778,a779,a780,a781,a782,a783,a784,a785,a786,a787,a788,a789,a790,a791,a792,a793,a794,a795,a796,a797,a798,a799,a800,a801,a802,a803,a804,a805,a806,a807,a808,a809,a810,a811,a812,a813,a814,a815,a816,a817,a818,a819,a820,a821,a822,a823,a824,a825,a826,a827,a828,a829,a830,a831,a832,a833,a834,a835,a836,a837,a838,a839,a840,a841,a842,a843,a844,a845,a846,a847,a848,a849,a850,a851,a852,a853,a854,a855,a856,a857,a858,a859,a860,a861,a862,a863,a864,a865,a866,a867,a868,a869,a870,a871,a872,a873,a874,a875,a876,a877,a878,a879,a880,a881,a882,a883,a884,a885,a886,a887,a888,a889,a890,a891,a892,a893,a894,a895,a896,a897,a898,a899,a900,a901,a902,a903,a904,a905,a906,a907,a908,a909,a910,a911,a912,a913,a914,a915,a916,a917,a918,a919,a920,a921,a922,a923,a924,a925,a926,a927,a928,a929,a930,a931,a932,a933,a934,a935,a936,a937,a938,a939,a940,a941,a942,a943,a944,a945,a946,a947,a948,a949,a950,a951,a952,a953,a954,a955,a956,a957,a958,a959,a960,a961,a962,a963,a964,a965,a966,a967,a968,a969,a970,a971,a972,a973,a974,a975,a976,a977,a978,a979,a980,a981,a982,a983,a984,a985,a986,a987,a988,a989,a990,a991,a992,a993,a994,a995,a996,a997,a998,a999,a1000
}
letting weight be function (
a1 --> 576,a2 --> 168,a3 --> 864,a4 --> 126,a5 --> 105,a6 --> 192,a7 --> 105,a8 --> 210,a9 --> 288,a10 --> 63,a11 --> 960,a12 --> 126,a13 --> 126,a14 --> 168,a15 --> 384,a16 --> 960,a17 --> 84,a18 --> 210,a19 --> 147,a20 --> 84,a21 --> 960,a22 --> 126,a23 --> 147,a24 --> 288,a25 --> 288,a26 --> 63,a27 --> 126,a28 --> 960,a29 --> 288,a30 --> 384,a31 --> 288,a32 --> 168,a33 --> 189,a34 --> 672,a35 --> 864,a36 --> 168,a37 --> 288,a38 --> 126,a39 --> 864,a40 --> 21,a41 --> 768,a42 --> 960,a43 --> 864,a44 --> 63,a45 --> 105,a46 --> 576,a47 --> 147,a48 --> 147,a49 --> 96,a50 --> 189,a51 --> 864,a52 --> 147,a53 --> 21,a54 --> 189,a55 --> 42,a56 --> 192,a57 --> 126,a58 --> 42,a59 --> 864,a60 --> 189,a61 --> 210,a62 --> 126,a63 --> 672,a64 --> 21,a65 --> 105,a66 --> 96,a67 --> 126,a68 --> 210,a69 --> 189,a70 --> 21,a71 --> 288,a72 --> 672,a73 --> 768,a74 --> 63,a75 --> 960,a76 --> 864,a77 --> 96,a78 --> 147,a79 --> 21,a80 --> 672,a81 --> 960,a82 --> 63,a83 --> 21,a84 --> 168,a85 --> 576,a86 --> 576,a87 --> 672,a88 --> 960,a89 --> 210,a90 --> 480,a91 --> 42,a92 --> 42,a93 --> 960,a94 --> 21,a95 --> 576,a96 --> 768,a97 --> 288,a98 --> 480,a99 --> 864,a100 --> 864,a101 --> 126,a102 --> 192,a103 --> 210,a104 --> 96,a105 --> 960,a106 --> 672,a107 --> 84,a108 --> 192,a109 --> 63,a110 --> 864,a111 --> 126,a112 --> 96,a113 --> 21,a114 --> 105,a115 --> 768,a116 --> 21,a117 --> 288,a118 --> 126,a119 --> 672,a120 --> 105,a121 --> 147,a122 --> 96,a123 --> 168,a124 --> 147,a125 --> 768,a126 --> 960,a127 --> 84,a128 --> 168,a129 --> 84,a130 --> 576,a131 --> 768,a132 --> 21,a133 --> 576,a134 --> 63,a135 --> 576,a136 --> 480,a137 --> 21,a138 --> 63,a139 --> 63,a140 --> 960,a141 --> 864,a142 --> 84,a143 --> 63,a144 --> 384,a145 --> 210,a146 --> 84,a147 --> 864,a148 --> 960,a149 --> 21,a150 --> 63,a151 --> 768,a152 --> 96,a153 --> 126,a154 --> 21,a155 --> 576,a156 --> 576,a157 --> 864,a158 --> 105,a159 --> 864,a160 --> 288,a161 --> 960,a162 --> 168,a163 --> 126,a164 --> 768,a165 --> 105,a166 --> 147,a167 --> 576,a168 --> 192,a169 --> 288,a170 --> 210,a171 --> 576,a172 --> 288,a173 --> 672,a174 --> 147,a175 --> 384,a176 --> 192,a177 --> 126,a178 --> 864,a179 --> 63,a180 --> 864,a181 --> 960,a182 --> 63,a183 --> 480,a184 --> 960,a185 --> 189,a186 --> 63,a187 --> 672,a188 --> 288,a189 --> 480,a190 --> 189,a191 --> 288,a192 --> 21,a193 --> 147,a194 --> 84,a195 --> 288,a196 --> 480,a197 --> 147,a198 --> 192,a199 --> 147,a200 --> 864,a201 --> 768,a202 --> 147,a203 --> 864,a204 --> 864,a205 --> 288,a206 --> 210,a207 --> 42,a208 --> 126,a209 --> 84,a210 --> 864,a211 --> 105,a212 --> 288,a213 --> 384,a214 --> 576,a215 --> 960,a216 --> 480,a217 --> 768,a218 --> 384,a219 --> 42,a220 --> 105,a221 --> 84,a222 --> 192,a223 --> 192,a224 --> 672,a225 --> 168,a226 --> 480,a227 --> 210,a228 --> 42,a229 --> 480,a230 --> 960,a231 --> 480,a232 --> 21,a233 --> 21,a234 --> 84,a235 --> 105,a236 --> 672,a237 --> 480,a238 --> 189,a239 --> 147,a240 --> 147,a241 --> 189,a242 --> 384,a243 --> 864,a244 --> 384,a245 --> 96,a246 --> 42,a247 --> 210,a248 --> 126,a249 --> 768,a250 --> 480,a251 --> 126,a252 --> 147,a253 --> 96,a254 --> 384,a255 --> 384,a256 --> 189,a257 --> 189,a258 --> 168,a259 --> 960,a260 --> 189,a261 --> 147,a262 --> 126,a263 --> 105,a264 --> 42,a265 --> 960,a266 --> 168,a267 --> 63,a268 --> 288,a269 --> 147,a270 --> 168,a271 --> 105,a272 --> 168,a273 --> 576,a274 --> 63,a275 --> 96,a276 --> 84,a277 --> 189,a278 --> 126,a279 --> 288,a280 --> 96,a281 --> 210,a282 --> 960,a283 --> 42,a284 --> 384,a285 --> 63,a286 --> 288,a287 --> 105,a288 --> 63,a289 --> 768,a290 --> 168,a291 --> 84,a292 --> 63,a293 --> 63,a294 --> 192,a295 --> 864,a296 --> 42,a297 --> 96,a298 --> 480,a299 --> 192,a300 --> 672,a301 --> 960,a302 --> 960,a303 --> 768,a304 --> 126,a305 --> 189,a306 --> 189,a307 --> 384,a308 --> 126,a309 --> 42,a310 --> 210,a311 --> 84,a312 --> 480,a313 --> 384,a314 --> 126,a315 --> 210,a316 --> 288,a317 --> 126,a318 --> 288,a319 --> 960,a320 --> 480,a321 --> 42,a322 --> 105,a323 --> 105,a324 --> 168,a325 --> 864,a326 --> 96,a327 --> 288,a328 --> 96,a329 --> 63,a330 --> 189,a331 --> 21,a332 --> 192,a333 --> 63,a334 --> 105,a335 --> 96,a336 --> 672,a337 --> 192,a338 --> 147,a339 --> 105,a340 --> 768,a341 --> 21,a342 --> 96,a343 --> 84,a344 --> 96,a345 --> 84,a346 --> 105,a347 --> 147,a348 --> 84,a349 --> 105,a350 --> 147,a351 --> 288,a352 --> 864,a353 --> 168,a354 --> 84,a355 --> 960,a356 --> 384,a357 --> 42,a358 --> 210,a359 --> 480,a360 --> 126,a361 --> 63,a362 --> 210,a363 --> 96,a364 --> 576,a365 --> 105,a366 --> 768,a367 --> 768,a368 --> 105,a369 --> 96,a370 --> 576,a371 --> 42,a372 --> 672,a373 --> 288,a374 --> 576,a375 --> 189,a376 --> 63,a377 --> 960,a378 --> 480,a379 --> 105,a380 --> 189,a381 --> 105,a382 --> 105,a383 --> 672,a384 --> 672,a385 --> 126,a386 --> 42,a387 --> 192,a388 --> 960,a389 --> 189,a390 --> 42,a391 --> 288,a392 --> 147,a393 --> 480,a394 --> 192,a395 --> 147,a396 --> 864,a397 --> 168,a398 --> 168,a399 --> 42,a400 --> 105,a401 --> 960,a402 --> 960,a403 --> 168,a404 --> 21,a405 --> 480,a406 --> 768,a407 --> 672,a408 --> 126,a409 --> 105,a410 --> 672,a411 --> 147,a412 --> 384,a413 --> 384,a414 --> 672,a415 --> 960,a416 --> 147,a417 --> 384,a418 --> 768,a419 --> 126,a420 --> 84,a421 --> 288,a422 --> 126,a423 --> 288,a424 --> 168,a425 --> 96,a426 --> 960,a427 --> 84,a428 --> 768,a429 --> 168,a430 --> 21,a431 --> 168,a432 --> 210,a433 --> 126,a434 --> 210,a435 --> 672,a436 --> 126,a437 --> 189,a438 --> 960,a439 --> 84,a440 --> 21,a441 --> 210,a442 --> 168,a443 --> 288,a444 --> 864,a445 --> 63,a446 --> 189,a447 --> 63,a448 --> 864,a449 --> 63,a450 --> 21,a451 --> 147,a452 --> 168,a453 --> 168,a454 --> 192,a455 --> 96,a456 --> 960,a457 --> 864,a458 --> 384,a459 --> 672,a460 --> 960,a461 --> 384,a462 --> 864,a463 --> 768,a464 --> 96,a465 --> 21,a466 --> 288,a467 --> 672,a468 --> 192,a469 --> 672,a470 --> 576,a471 --> 84,a472 --> 147,a473 --> 864,a474 --> 84,a475 --> 210,a476 --> 126,a477 --> 192,a478 --> 192,a479 --> 384,a480 --> 189,a481 --> 576,a482 --> 168,a483 --> 210,a484 --> 768,a485 --> 84,a486 --> 63,a487 --> 288,a488 --> 210,a489 --> 168,a490 --> 21,a491 --> 864,a492 --> 576,a493 --> 168,a494 --> 288,a495 --> 21,a496 --> 105,a497 --> 288,a498 --> 960,a499 --> 288,a500 --> 864,a501 --> 189,a502 --> 21,a503 --> 288,a504 --> 864,a505 --> 960,a506 --> 189,a507 --> 864,a508 --> 288,a509 --> 864,a510 --> 960,a511 --> 480,a512 --> 105,a513 --> 105,a514 --> 672,a515 --> 168,a516 --> 21,a517 --> 210,a518 --> 105,a519 --> 864,a520 --> 63,a521 --> 189,a522 --> 384,a523 --> 21,a524 --> 210,a525 --> 288,a526 --> 864,a527 --> 384,a528 --> 126,a529 --> 864,a530 --> 84,a531 --> 168,a532 --> 84,a533 --> 768,a534 --> 96,a535 --> 147,a536 --> 672,a537 --> 384,a538 --> 96,a539 --> 480,a540 --> 105,a541 --> 384,a542 --> 192,a543 --> 768,a544 --> 189,a545 --> 960,a546 --> 672,a547 --> 672,a548 --> 768,a549 --> 105,a550 --> 168,a551 --> 63,a552 --> 126,a553 --> 84,a554 --> 147,a555 --> 105,a556 --> 147,a557 --> 384,a558 --> 63,a559 --> 96,a560 --> 21,a561 --> 960,a562 --> 105,a563 --> 189,a564 --> 84,a565 --> 147,a566 --> 126,a567 --> 210,a568 --> 864,a569 --> 480,a570 --> 768,a571 --> 960,a572 --> 126,a573 --> 480,a574 --> 288,a575 --> 96,a576 --> 576,a577 --> 42,a578 --> 96,a579 --> 210,a580 --> 192,a581 --> 768,a582 --> 84,a583 --> 105,a584 --> 480,a585 --> 192,a586 --> 480,a587 --> 384,a588 --> 42,a589 --> 672,a590 --> 189,a591 --> 768,a592 --> 384,a593 --> 960,a594 --> 126,a595 --> 192,a596 --> 147,a597 --> 63,a598 --> 288,a599 --> 42,a600 --> 210,a601 --> 864,a602 --> 42,a603 --> 192,a604 --> 480,a605 --> 42,a606 --> 288,a607 --> 168,a608 --> 960,a609 --> 96,a610 --> 105,a611 --> 21,a612 --> 63,a613 --> 21,a614 --> 576,a615 --> 147,a616 --> 84,a617 --> 147,a618 --> 288,a619 --> 384,a620 --> 96,a621 --> 864,a622 --> 672,a623 --> 189,a624 --> 168,a625 --> 864,a626 --> 480,a627 --> 864,a628 --> 21,a629 --> 210,a630 --> 576,a631 --> 960,a632 --> 672,a633 --> 210,a634 --> 960,a635 --> 210,a636 --> 42,a637 --> 576,a638 --> 960,a639 --> 864,a640 --> 21,a641 --> 105,a642 --> 189,a643 --> 63,a644 --> 168,a645 --> 384,a646 --> 576,a647 --> 96,a648 --> 84,a649 --> 480,a650 --> 210,a651 --> 960,a652 --> 96,a653 --> 84,a654 --> 147,a655 --> 576,a656 --> 576,a657 --> 126,a658 --> 960,a659 --> 105,a660 --> 192,a661 --> 384,a662 --> 210,a663 --> 672,a664 --> 147,a665 --> 210,a666 --> 864,a667 --> 864,a668 --> 96,a669 --> 960,a670 --> 189,a671 --> 576,a672 --> 192,a673 --> 105,a674 --> 576,a675 --> 126,a676 --> 576,a677 --> 576,a678 --> 21,a679 --> 63,a680 --> 192,a681 --> 147,a682 --> 288,a683 --> 960,a684 --> 288,a685 --> 96,a686 --> 960,a687 --> 147,a688 --> 576,a689 --> 147,a690 --> 480,a691 --> 288,a692 --> 384,a693 --> 480,a694 --> 126,a695 --> 672,a696 --> 96,a697 --> 672,a698 --> 672,a699 --> 189,a700 --> 42,a701 --> 960,a702 --> 960,a703 --> 96,a704 --> 126,a705 --> 960,a706 --> 126,a707 --> 96,a708 --> 21,a709 --> 288,a710 --> 168,a711 --> 126,a712 --> 147,a713 --> 864,a714 --> 672,a715 --> 480,a716 --> 168,a717 --> 576,a718 --> 960,a719 --> 210,a720 --> 42,a721 --> 384,a722 --> 42,a723 --> 147,a724 --> 384,a725 --> 96,a726 --> 84,a727 --> 105,a728 --> 288,a729 --> 63,a730 --> 480,a731 --> 192,a732 --> 288,a733 --> 960,a734 --> 63,a735 --> 864,a736 --> 864,a737 --> 576,a738 --> 168,a739 --> 384,a740 --> 672,a741 --> 768,a742 --> 126,a743 --> 42,a744 --> 384,a745 --> 768,a746 --> 147,a747 --> 864,a748 --> 126,a749 --> 672,a750 --> 105,a751 --> 168,a752 --> 960,a753 --> 192,a754 --> 168,a755 --> 864,a756 --> 960,a757 --> 84,a758 --> 960,a759 --> 96,a760 --> 192,a761 --> 192,a762 --> 192,a763 --> 864,a764 --> 189,a765 --> 576,a766 --> 384,a767 --> 189,a768 --> 168,a769 --> 288,a770 --> 96,a771 --> 210,a772 --> 480,a773 --> 126,a774 --> 960,a775 --> 42,a776 --> 864,a777 --> 126,a778 --> 672,a779 --> 576,a780 --> 96,a781 --> 384,a782 --> 63,a783 --> 126,a784 --> 42,a785 --> 960,a786 --> 21,a787 --> 84,a788 --> 21,a789 --> 147,a790 --> 96,a791 --> 192,a792 --> 288,a793 --> 210,a794 --> 126,a795 --> 864,a796 --> 288,a797 --> 210,a798 --> 105,a799 --> 105,a800 --> 192,a801 --> 864,a802 --> 63,a803 --> 864,a804 --> 576,a805 --> 672,a806 --> 384,a807 --> 96,a808 --> 21,a809 --> 21,a810 --> 84,a811 --> 21,a812 --> 672,a813 --> 960,a814 --> 84,a815 --> 576,a816 --> 63,a817 --> 126,a818 --> 210,a819 --> 480,a820 --> 864,a821 --> 105,a822 --> 147,a823 --> 192,a824 --> 192,a825 --> 63,a826 --> 288,a827 --> 864,a828 --> 63,a829 --> 384,a830 --> 63,a831 --> 192,a832 --> 192,a833 --> 288,a834 --> 63,a835 --> 576,a836 --> 576,a837 --> 210,a838 --> 288,a839 --> 63,a840 --> 96,a841 --> 126,a842 --> 63,a843 --> 210,a844 --> 147,a845 --> 147,a846 --> 288,a847 --> 672,a848 --> 42,a849 --> 42,a850 --> 210,a851 --> 288,a852 --> 210,a853 --> 576,a854 --> 960,a855 --> 960,a856 --> 42,a857 --> 864,a858 --> 126,a859 --> 105,a860 --> 480,a861 --> 480,a862 --> 126,a863 --> 672,a864 --> 63,a865 --> 168,a866 --> 864,a867 --> 84,a868 --> 672,a869 --> 63,a870 --> 480,a871 --> 96,a872 --> 96,a873 --> 210,a874 --> 576,a875 --> 480,a876 --> 168,a877 --> 672,a878 --> 576,a879 --> 672,a880 --> 576,a881 --> 288,a882 --> 189,a883 --> 126,a884 --> 480,a885 --> 126,a886 --> 84,a887 --> 126,a888 --> 960,a889 --> 864,a890 --> 96,a891 --> 168,a892 --> 105,a893 --> 864,a894 --> 105,a895 --> 210,a896 --> 63,a897 --> 210,a898 --> 672,a899 --> 384,a900 --> 864,a901 --> 147,a902 --> 960,a903 --> 168,a904 --> 192,a905 --> 21,a906 --> 126,a907 --> 576,a908 --> 672,a909 --> 384,a910 --> 147,a911 --> 960,a912 --> 576,a913 --> 96,a914 --> 84,a915 --> 63,a916 --> 168,a917 --> 768,a918 --> 480,a919 --> 768,a920 --> 192,a921 --> 480,a922 --> 192,a923 --> 126,a924 --> 672,a925 --> 864,a926 --> 189,a927 --> 576,a928 --> 126,a929 --> 672,a930 --> 960,a931 --> 105,a932 --> 192,a933 --> 864,a934 --> 189,a935 --> 168,a936 --> 21,a937 --> 96,a938 --> 147,a939 --> 147,a940 --> 42,a941 --> 672,a942 --> 192,a943 --> 864,a944 --> 168,a945 --> 147,a946 --> 63,a947 --> 96,a948 --> 288,a949 --> 147,a950 --> 96,a951 --> 210,a952 --> 21,a953 --> 864,a954 --> 960,a955 --> 168,a956 --> 84,a957 --> 960,a958 --> 96,a959 --> 147,a960 --> 21,a961 --> 126,a962 --> 147,a963 --> 384,a964 --> 960,a965 --> 288,a966 --> 168,a967 --> 672,a968 --> 576,a969 --> 672,a970 --> 288,a971 --> 480,a972 --> 126,a973 --> 480,a974 --> 63,a975 --> 168,a976 --> 768,a977 --> 147,a978 --> 192,a979 --> 288,a980 --> 168,a981 --> 192,a982 --> 672,a983 --> 960,a984 --> 768,a985 --> 576,a986 --> 21,a987 --> 576,a988 --> 960,a989 --> 84,a990 --> 126,a991 --> 21,a992 --> 864,a993 --> 768,a994 --> 84,a995 --> 960,a996 --> 672,a997 --> 96,a998 --> 210,a999 --> 189,a1000 --> 960
)
letting gain be function (
a1 --> 462,a2 --> 88,a3 --> 693,a4 --> 66,a5 --> 55,a6 --> 154,a7 --> 55,a8 --> 110,a9 --> 231,a10 --> 33,a11 --> 770,a12 --> 66,a13 --> 66,a14 --> 88,a15 --> 308,a16 --> 770,a17 --> 44,a18 --> 110,a19 --> 77,a20 --> 44,a21 --> 770,a22 --> 66,a23 --> 77,a24 --> 231,a25 --> 231,a26 --> 33,a27 --> 66,a28 --> 770,a29 --> 231,a30 --> 308,a31 --> 231,a32 --> 88,a33 --> 99,a34 --> 539,a35 --> 693,a36 --> 88,a37 --> 231,a38 --> 66,a39 --> 693,a40 --> 11,a41 --> 616,a42 --> 770,a43 --> 693,a44 --> 33,a45 --> 55,a46 --> 462,a47 --> 77,a48 --> 77,a49 --> 77,a50 --> 99,a51 --> 693,a52 --> 77,a53 --> 11,a54 --> 99,a55 --> 22,a56 --> 154,a57 --> 66,a58 --> 22,a59 --> 693,a60 --> 99,a61 --> 110,a62 --> 66,a63 --> 539,a64 --> 11,a65 --> 55,a66 --> 77,a67 --> 66,a68 --> 110,a69 --> 99,a70 --> 11,a71 --> 231,a72 --> 539,a73 --> 616,a74 --> 33,a75 --> 770,a76 --> 693,a77 --> 77,a78 --> 77,a79 --> 11,a80 --> 539,a81 --> 770,a82 --> 33,a83 --> 11,a84 --> 88,a85 --> 462,a86 --> 462,a87 --> 539,a88 --> 770,a89 --> 110,a90 --> 385,a91 --> 22,a92 --> 22,a93 --> 770,a94 --> 11,a95 --> 462,a96 --> 616,a97 --> 231,a98 --> 385,a99 --> 693,a100 --> 693,a101 --> 66,a102 --> 154,a103 --> 110,a104 --> 77,a105 --> 770,a106 --> 539,a107 --> 44,a108 --> 154,a109 --> 33,a110 --> 693,a111 --> 66,a112 --> 77,a113 --> 11,a114 --> 55,a115 --> 616,a116 --> 11,a117 --> 231,a118 --> 66,a119 --> 539,a120 --> 55,a121 --> 77,a122 --> 77,a123 --> 88,a124 --> 77,a125 --> 616,a126 --> 770,a127 --> 44,a128 --> 88,a129 --> 44,a130 --> 462,a131 --> 616,a132 --> 11,a133 --> 462,a134 --> 33,a135 --> 462,a136 --> 385,a137 --> 11,a138 --> 33,a139 --> 33,a140 --> 770,a141 --> 693,a142 --> 44,a143 --> 33,a144 --> 308,a145 --> 110,a146 --> 44,a147 --> 693,a148 --> 770,a149 --> 11,a150 --> 33,a151 --> 616,a152 --> 77,a153 --> 66,a154 --> 11,a155 --> 462,a156 --> 462,a157 --> 693,a158 --> 55,a159 --> 693,a160 --> 231,a161 --> 770,a162 --> 88,a163 --> 66,a164 --> 616,a165 --> 55,a166 --> 77,a167 --> 462,a168 --> 154,a169 --> 231,a170 --> 110,a171 --> 462,a172 --> 231,a173 --> 539,a174 --> 77,a175 --> 308,a176 --> 154,a177 --> 66,a178 --> 693,a179 --> 33,a180 --> 693,a181 --> 770,a182 --> 33,a183 --> 385,a184 --> 770,a185 --> 99,a186 --> 33,a187 --> 539,a188 --> 231,a189 --> 385,a190 --> 99,a191 --> 231,a192 --> 11,a193 --> 77,a194 --> 44,a195 --> 231,a196 --> 385,a197 --> 77,a198 --> 154,a199 --> 77,a200 --> 693,a201 --> 616,a202 --> 77,a203 --> 693,a204 --> 693,a205 --> 231,a206 --> 110,a207 --> 22,a208 --> 66,a209 --> 44,a210 --> 693,a211 --> 55,a212 --> 231,a213 --> 308,a214 --> 462,a215 --> 770,a216 --> 385,a217 --> 616,a218 --> 308,a219 --> 22,a220 --> 55,a221 --> 44,a222 --> 154,a223 --> 154,a224 --> 539,a225 --> 88,a226 --> 385,a227 --> 110,a228 --> 22,a229 --> 385,a230 --> 770,a231 --> 385,a232 --> 11,a233 --> 11,a234 --> 44,a235 --> 55,a236 --> 539,a237 --> 385,a238 --> 99,a239 --> 77,a240 --> 77,a241 --> 99,a242 --> 308,a243 --> 693,a244 --> 308,a245 --> 77,a246 --> 22,a247 --> 110,a248 --> 66,a249 --> 616,a250 --> 385,a251 --> 66,a252 --> 77,a253 --> 77,a254 --> 308,a255 --> 308,a256 --> 99,a257 --> 99,a258 --> 88,a259 --> 770,a260 --> 99,a261 --> 77,a262 --> 66,a263 --> 55,a264 --> 22,a265 --> 770,a266 --> 88,a267 --> 33,a268 --> 231,a269 --> 77,a270 --> 88,a271 --> 55,a272 --> 88,a273 --> 462,a274 --> 33,a275 --> 77,a276 --> 44,a277 --> 99,a278 --> 66,a279 --> 231,a280 --> 77,a281 --> 110,a282 --> 770,a283 --> 22,a284 --> 308,a285 --> 33,a286 --> 231,a287 --> 55,a288 --> 33,a289 --> 616,a290 --> 88,a291 --> 44,a292 --> 33,a293 --> 33,a294 --> 154,a295 --> 693,a296 --> 22,a297 --> 77,a298 --> 385,a299 --> 154,a300 --> 539,a301 --> 770,a302 --> 770,a303 --> 616,a304 --> 66,a305 --> 99,a306 --> 99,a307 --> 308,a308 --> 66,a309 --> 22,a310 --> 110,a311 --> 44,a312 --> 385,a313 --> 308,a314 --> 66,a315 --> 110,a316 --> 231,a317 --> 66,a318 --> 231,a319 --> 770,a320 --> 385,a321 --> 22,a322 --> 55,a323 --> 55,a324 --> 88,a325 --> 693,a326 --> 77,a327 --> 231,a328 --> 77,a329 --> 33,a330 --> 99,a331 --> 11,a332 --> 154,a333 --> 33,a334 --> 55,a335 --> 77,a336 --> 539,a337 --> 154,a338 --> 77,a339 --> 55,a340 --> 616,a341 --> 11,a342 --> 77,a343 --> 44,a344 --> 77,a345 --> 44,a346 --> 55,a347 --> 77,a348 --> 44,a349 --> 55,a350 --> 77,a351 --> 231,a352 --> 693,a353 --> 88,a354 --> 44,a355 --> 770,a356 --> 308,a357 --> 22,a358 --> 110,a359 --> 385,a360 --> 66,a361 --> 33,a362 --> 110,a363 --> 77,a364 --> 462,a365 --> 55,a366 --> 616,a367 --> 616,a368 --> 55,a369 --> 77,a370 --> 462,a371 --> 22,a372 --> 539,a373 --> 231,a374 --> 462,a375 --> 99,a376 --> 33,a377 --> 770,a378 --> 385,a379 --> 55,a380 --> 99,a381 --> 55,a382 --> 55,a383 --> 539,a384 --> 539,a385 --> 66,a386 --> 22,a387 --> 154,a388 --> 770,a389 --> 99,a390 --> 22,a391 --> 231,a392 --> 77,a393 --> 385,a394 --> 154,a395 --> 77,a396 --> 693,a397 --> 88,a398 --> 88,a399 --> 22,a400 --> 55,a401 --> 770,a402 --> 770,a403 --> 88,a404 --> 11,a405 --> 385,a406 --> 616,a407 --> 539,a408 --> 66,a409 --> 55,a410 --> 539,a411 --> 77,a412 --> 308,a413 --> 308,a414 --> 539,a415 --> 770,a416 --> 77,a417 --> 308,a418 --> 616,a419 --> 66,a420 --> 44,a421 --> 231,a422 --> 66,a423 --> 231,a424 --> 88,a425 --> 77,a426 --> 770,a427 --> 44,a428 --> 616,a429 --> 88,a430 --> 11,a431 --> 88,a432 --> 110,a433 --> 66,a434 --> 110,a435 --> 539,a436 --> 66,a437 --> 99,a438 --> 770,a439 --> 44,a440 --> 11,a441 --> 110,a442 --> 88,a443 --> 231,a444 --> 693,a445 --> 33,a446 --> 99,a447 --> 33,a448 --> 693,a449 --> 33,a450 --> 11,a451 --> 77,a452 --> 88,a453 --> 88,a454 --> 154,a455 --> 77,a456 --> 770,a457 --> 693,a458 --> 308,a459 --> 539,a460 --> 770,a461 --> 308,a462 --> 693,a463 --> 616,a464 --> 77,a465 --> 11,a466 --> 231,a467 --> 539,a468 --> 154,a469 --> 539,a470 --> 462,a471 --> 44,a472 --> 77,a473 --> 693,a474 --> 44,a475 --> 110,a476 --> 66,a477 --> 154,a478 --> 154,a479 --> 308,a480 --> 99,a481 --> 462,a482 --> 88,a483 --> 110,a484 --> 616,a485 --> 44,a486 --> 33,a487 --> 231,a488 --> 110,a489 --> 88,a490 --> 11,a491 --> 693,a492 --> 462,a493 --> 88,a494 --> 231,a495 --> 11,a496 --> 55,a497 --> 231,a498 --> 770,a499 --> 231,a500 --> 693,a501 --> 99,a502 --> 11,a503 --> 231,a504 --> 693,a505 --> 770,a506 --> 99,a507 --> 693,a508 --> 231,a509 --> 693,a510 --> 770,a511 --> 385,a512 --> 55,a513 --> 55,a514 --> 539,a515 --> 88,a516 --> 11,a517 --> 110,a518 --> 55,a519 --> 693,a520 --> 33,a521 --> 99,a522 --> 308,a523 --> 11,a524 --> 110,a525 --> 231,a526 --> 693,a527 --> 308,a528 --> 66,a529 --> 693,a530 --> 44,a531 --> 88,a532 --> 44,a533 --> 616,a534 --> 77,a535 --> 77,a536 --> 539,a537 --> 308,a538 --> 77,a539 --> 385,a540 --> 55,a541 --> 308,a542 --> 154,a543 --> 616,a544 --> 99,a545 --> 770,a546 --> 539,a547 --> 539,a548 --> 616,a549 --> 55,a550 --> 88,a551 --> 33,a552 --> 66,a553 --> 44,a554 --> 77,a555 --> 55,a556 --> 77,a557 --> 308,a558 --> 33,a559 --> 77,a560 --> 11,a561 --> 770,a562 --> 55,a563 --> 99,a564 --> 44,a565 --> 77,a566 --> 66,a567 --> 110,a568 --> 693,a569 --> 385,a570 --> 616,a571 --> 770,a572 --> 66,a573 --> 385,a574 --> 231,a575 --> 77,a576 --> 462,a577 --> 22,a578 --> 77,a579 --> 110,a580 --> 154,a581 --> 616,a582 --> 44,a583 --> 55,a584 --> 385,a585 --> 154,a586 --> 385,a587 --> 308,a588 --> 22,a589 --> 539,a590 --> 99,a591 --> 616,a592 --> 308,a593 --> 770,a594 --> 66,a595 --> 154,a596 --> 77,a597 --> 33,a598 --> 231,a599 --> 22,a600 --> 110,a601 --> 693,a602 --> 22,a603 --> 154,a604 --> 385,a605 --> 22,a606 --> 231,a607 --> 88,a608 --> 770,a609 --> 77,a610 --> 55,a611 --> 11,a612 --> 33,a613 --> 11,a614 --> 462,a615 --> 77,a616 --> 44,a617 --> 77,a618 --> 231,a619 --> 308,a620 --> 77,a621 --> 693,a622 --> 539,a623 --> 99,a624 --> 88,a625 --> 693,a626 --> 385,a627 --> 693,a628 --> 11,a629 --> 110,a630 --> 462,a631 --> 770,a632 --> 539,a633 --> 110,a634 --> 770,a635 --> 110,a636 --> 22,a637 --> 462,a638 --> 770,a639 --> 693,a640 --> 11,a641 --> 55,a642 --> 99,a643 --> 33,a644 --> 88,a645 --> 308,a646 --> 462,a647 --> 77,a648 --> 44,a649 --> 385,a650 --> 110,a651 --> 770,a652 --> 77,a653 --> 44,a654 --> 77,a655 --> 462,a656 --> 462,a657 --> 66,a658 --> 770,a659 --> 55,a660 --> 154,a661 --> 308,a662 --> 110,a663 --> 539,a664 --> 77,a665 --> 110,a666 --> 693,a667 --> 693,a668 --> 77,a669 --> 770,a670 --> 99,a671 --> 462,a672 --> 154,a673 --> 55,a674 --> 462,a675 --> 66,a676 --> 462,a677 --> 462,a678 --> 11,a679 --> 33,a680 --> 154,a681 --> 77,a682 --> 231,a683 --> 770,a684 --> 231,a685 --> 77,a686 --> 770,a687 --> 77,a688 --> 462,a689 --> 77,a690 --> 385,a691 --> 231,a692 --> 308,a693 --> 385,a694 --> 66,a695 --> 539,a696 --> 77,a697 --> 539,a698 --> 539,a699 --> 99,a700 --> 22,a701 --> 770,a702 --> 770,a703 --> 77,a704 --> 66,a705 --> 770,a706 --> 66,a707 --> 77,a708 --> 11,a709 --> 231,a710 --> 88,a711 --> 66,a712 --> 77,a713 --> 693,a714 --> 539,a715 --> 385,a716 --> 88,a717 --> 462,a718 --> 770,a719 --> 110,a720 --> 22,a721 --> 308,a722 --> 22,a723 --> 77,a724 --> 308,a725 --> 77,a726 --> 44,a727 --> 55,a728 --> 231,a729 --> 33,a730 --> 385,a731 --> 154,a732 --> 231,a733 --> 770,a734 --> 33,a735 --> 693,a736 --> 693,a737 --> 462,a738 --> 88,a739 --> 308,a740 --> 539,a741 --> 616,a742 --> 66,a743 --> 22,a744 --> 308,a745 --> 616,a746 --> 77,a747 --> 693,a748 --> 66,a749 --> 539,a750 --> 55,a751 --> 88,a752 --> 770,a753 --> 154,a754 --> 88,a755 --> 693,a756 --> 770,a757 --> 44,a758 --> 770,a759 --> 77,a760 --> 154,a761 --> 154,a762 --> 154,a763 --> 693,a764 --> 99,a765 --> 462,a766 --> 308,a767 --> 99,a768 --> 88,a769 --> 231,a770 --> 77,a771 --> 110,a772 --> 385,a773 --> 66,a774 --> 770,a775 --> 22,a776 --> 693,a777 --> 66,a778 --> 539,a779 --> 462,a780 --> 77,a781 --> 308,a782 --> 33,a783 --> 66,a784 --> 22,a785 --> 770,a786 --> 11,a787 --> 44,a788 --> 11,a789 --> 77,a790 --> 77,a791 --> 154,a792 --> 231,a793 --> 110,a794 --> 66,a795 --> 693,a796 --> 231,a797 --> 110,a798 --> 55,a799 --> 55,a800 --> 154,a801 --> 693,a802 --> 33,a803 --> 693,a804 --> 462,a805 --> 539,a806 --> 308,a807 --> 77,a808 --> 11,a809 --> 11,a810 --> 44,a811 --> 11,a812 --> 539,a813 --> 770,a814 --> 44,a815 --> 462,a816 --> 33,a817 --> 66,a818 --> 110,a819 --> 385,a820 --> 693,a821 --> 55,a822 --> 77,a823 --> 154,a824 --> 154,a825 --> 33,a826 --> 231,a827 --> 693,a828 --> 33,a829 --> 308,a830 --> 33,a831 --> 154,a832 --> 154,a833 --> 231,a834 --> 33,a835 --> 462,a836 --> 462,a837 --> 110,a838 --> 231,a839 --> 33,a840 --> 77,a841 --> 66,a842 --> 33,a843 --> 110,a844 --> 77,a845 --> 77,a846 --> 231,a847 --> 539,a848 --> 22,a849 --> 22,a850 --> 110,a851 --> 231,a852 --> 110,a853 --> 462,a854 --> 770,a855 --> 770,a856 --> 22,a857 --> 693,a858 --> 66,a859 --> 55,a860 --> 385,a861 --> 385,a862 --> 66,a863 --> 539,a864 --> 33,a865 --> 88,a866 --> 693,a867 --> 44,a868 --> 539,a869 --> 33,a870 --> 385,a871 --> 77,a872 --> 77,a873 --> 110,a874 --> 462,a875 --> 385,a876 --> 88,a877 --> 539,a878 --> 462,a879 --> 539,a880 --> 462,a881 --> 231,a882 --> 99,a883 --> 66,a884 --> 385,a885 --> 66,a886 --> 44,a887 --> 66,a888 --> 770,a889 --> 693,a890 --> 77,a891 --> 88,a892 --> 55,a893 --> 693,a894 --> 55,a895 --> 110,a896 --> 33,a897 --> 110,a898 --> 539,a899 --> 308,a900 --> 693,a901 --> 77,a902 --> 770,a903 --> 88,a904 --> 154,a905 --> 11,a906 --> 66,a907 --> 462,a908 --> 539,a909 --> 308,a910 --> 77,a911 --> 770,a912 --> 462,a913 --> 77,a914 --> 44,a915 --> 33,a916 --> 88,a917 --> 616,a918 --> 385,a919 --> 616,a920 --> 154,a921 --> 385,a922 --> 154,a923 --> 66,a924 --> 539,a925 --> 693,a926 --> 99,a927 --> 462,a928 --> 66,a929 --> 539,a930 --> 770,a931 --> 55,a932 --> 154,a933 --> 693,a934 --> 99,a935 --> 88,a936 --> 11,a937 --> 77,a938 --> 77,a939 --> 77,a940 --> 22,a941 --> 539,a942 --> 154,a943 --> 693,a944 --> 88,a945 --> 77,a946 --> 33,a947 --> 77,a948 --> 231,a949 --> 77,a950 --> 77,a951 --> 110,a952 --> 11,a953 --> 693,a954 --> 770,a955 --> 88,a956 --> 44,a957 --> 770,a958 --> 77,a959 --> 77,a960 --> 11,a961 --> 66,a962 --> 77,a963 --> 308,a964 --> 770,a965 --> 231,a966 --> 88,a967 --> 539,a968 --> 462,a969 --> 539,a970 --> 231,a971 --> 385,a972 --> 66,a973 --> 385,a974 --> 33,a975 --> 88,a976 --> 616,a977 --> 77,a978 --> 154,a979 --> 231,a980 --> 88,a981 --> 154,a982 --> 539,a983 --> 770,a984 --> 616,a985 --> 462,a986 --> 11,a987 --> 462,a988 --> 770,a989 --> 44,a990 --> 66,a991 --> 11,a992 --> 693,a993 --> 616,a994 --> 44,a995 --> 770,a996 --> 539,a997 --> 77,a998 --> 110,a999 --> 99,a1000 --> 770
)
